NAME : X_18_seed_123_id_9
TYPE : CVRP
DIMENSION : 181
EDGE_WEIGHT_TYPE : EUC_2D
CAPACITY : 8
NODE_COORD_SECTION
1	414	308
2	120	668
3	189	738
4	351	753
5	661	32
6	820	275
7	755	684
8	171	842
9	137	695
10	372	653
11	751	262
12	824	313
13	293	800
14	740	719
15	625	114
16	359	758
17	539	115
18	248	687
19	690	116
20	179	770
21	731	31
22	693	34
23	820	269
24	58	713
25	771	786
26	185	746
27	355	673
28	959	324
29	48	633
30	850	649
31	698	22
32	355	753
33	454	790
34	780	688
35	660	698
36	104	716
37	341	778
38	791	299
39	810	258
40	166	679
41	161	583
42	433	211
43	184	750
44	113	677
45	847	308
46	679	88
47	701	679
48	163	765
49	744	367
50	750	246
51	118	618
52	413	810
53	338	723
54	750	226
55	256	859
56	713	600
57	749	362
58	187	529
59	157	830
60	421	774
61	710	36
62	386	808
63	359	752
64	907	337
65	823	326
66	668	97
67	414	705
68	308	825
69	188	731
70	755	679
71	275	874
72	720	251
73	898	226
74	245	586
75	759	721
76	743	564
77	662	195
78	811	197
79	214	777
80	331	750
81	761	598
82	240	731
83	697	635
84	114	680
85	178	811
86	604	51
87	669	34
88	111	656
89	666	34
90	786	309
91	640	430
92	253	756
93	695	15
94	128	742
95	779	310
96	179	757
97	845	269
98	402	867
99	122	678
100	214	704
101	773	262
102	856	576
103	191	617
104	57	586
105	755	252
106	680	57
107	663	26
108	663	42
109	372	691
110	260	688
111	853	270
112	425	801
113	755	248
114	143	735
115	817	629
116	751	693
117	676	717
118	434	768
119	928	321
120	124	765
121	413	755
122	358	750
123	102	640
124	844	345
125	478	680
126	329	734
127	662	6
128	139	752
129	732	76
130	875	224
131	304	661
132	153	773
133	764	680
134	778	205
135	849	337
136	870	372
137	122	709
138	821	289
139	145	588
140	864	300
141	63	717
142	830	336
143	226	716
144	205	817
145	631	549
146	389	686
147	187	713
148	737	577
149	627	129
150	236	762
151	481	620
152	322	677
153	510	760
154	925	298
155	163	695
156	246	740
157	580	672
158	724	365
159	143	716
160	401	785
161	340	791
162	795	249
163	142	761
164	741	294
165	116	666
166	789	687
167	360	798
168	68	722
169	545	22
170	245	853
171	249	666
172	371	780
173	614	2
174	236	694
175	732	736
176	344	850
177	747	523
178	354	748
179	277	681
180	822	62
181	788	731
DEMAND_SECTION
1	0
2	1
3	1
4	1
5	1
6	1
7	1
8	1
9	1
10	1
11	1
12	1
13	1
14	1
15	1
16	1
17	1
18	1
19	1
20	1
21	1
22	1
23	1
24	1
25	1
26	1
27	1
28	1
29	1
30	1
31	1
32	1
33	1
34	1
35	1
36	1
37	1
38	1
39	1
40	1
41	1
42	1
43	1
44	1
45	1
46	1
47	1
48	1
49	1
50	1
51	1
52	1
53	1
54	1
55	1
56	1
57	1
58	1
59	1
60	1
61	1
62	1
63	1
64	1
65	1
66	1
67	1
68	1
69	1
70	1
71	1
72	1
73	1
74	1
75	1
76	1
77	1
78	1
79	1
80	1
81	1
82	1
83	1
84	1
85	1
86	1
87	1
88	1
89	1
90	1
91	1
92	1
93	1
94	1
95	1
96	1
97	1
98	1
99	1
100	1
101	1
102	1
103	1
104	1
105	1
106	1
107	1
108	1
109	1
110	1
111	1
112	1
113	1
114	1
115	1
116	1
117	1
118	1
119	1
120	1
121	1
122	1
123	1
124	1
125	1
126	1
127	1
128	1
129	1
130	1
131	1
132	1
133	1
134	1
135	1
136	1
137	1
138	1
139	1
140	1
141	1
142	1
143	1
144	1
145	1
146	1
147	1
148	1
149	1
150	1
151	1
152	1
153	1
154	1
155	1
156	1
157	1
158	1
159	1
160	1
161	1
162	1
163	1
164	1
165	1
166	1
167	1
168	1
169	1
170	1
171	1
172	1
173	1
174	1
175	1
176	1
177	1
178	1
179	1
180	1
181	1
DEPOT_SECTION
1
-1
EOF
